nvertices = 8;
owners = [0,1,0,1,1,1,0,0];
priors = [2,3,1,0,4,1,4,2];
nedges = 15;
sources = [0,0,1,1,2,2,3,3,4,4,5,5,6,6,7];
targets = [1,4,0,2,3,6,3,1,5,6,6,4,7,5,4];
weights = [1,2,3,4,5,6,7,8,9,10,11,12,13,14,15];
sinks = {}